
Gurobi 9.5.2 (mac64[arm]) logging started Fri Apr 28 13:15:05 2023

Set parameter LogFile to value "Java/output/pure_mip_2_machine/scenario_seed_0_nJob_30_machineCount_2/mip_increment_5/log.txt"
Gurobi Optimizer version 9.5.2 build v9.5.2rc0 (mac64[arm])
Thread count: 8 physical cores, 8 logical processors, using up to 8 threads
Optimize a model with 504 rows, 5394 columns and 24012 nonzeros
Model fingerprint: 0xa0acf0f4
Variable types: 0 continuous, 5394 integer (5394 binary)
Coefficient statistics:
  Matrix range     [1e+00, 2e+02]
  Objective range  [4e+00, 3e+06]
  Bounds range     [1e+00, 1e+00]
  RHS range        [1e+00, 1e+00]
Presolve removed 29 rows and 1022 columns
Presolve time: 0.03s
Presolved: 475 rows, 4372 columns, 19401 nonzeros
Variable types: 0 continuous, 4372 integer (4372 binary)

Root relaxation: objective 1.306381e+05, 2817 iterations, 0.07 seconds (0.10 work units)

    Nodes    |    Current Node    |     Objective Bounds      |     Work
 Expl Unexpl |  Obj  Depth IntInf | Incumbent    BestBd   Gap | It/Node Time

     0     0 130638.135    0  212          - 130638.135      -     -    0s
H    0     0                    6634938.0000 130638.135  98.0%     -    0s
H    0     0                    4556974.0000 130638.135  97.1%     -    0s
H    0     0                    2650265.0000 148225.486  94.4%     -    0s
     0     0 148225.486    0  295 2650265.00 148225.486  94.4%     -    0s
H    0     0                    2626240.0000 148225.486  94.4%     -    0s
H    0     0                    2428376.0000 148225.486  93.9%     -    0s
     0     0 151215.561    0  297 2428376.00 151215.561  93.8%     -    0s
     0     0 151471.779    0  294 2428376.00 151471.779  93.8%     -    0s
     0     0 151471.803    0  295 2428376.00 151471.803  93.8%     -    0s
     0     0 168019.878    0  319 2428376.00 168019.878  93.1%     -    0s
H    0     0                    2239585.0000 168019.878  92.5%     -    0s
H    0     0                    1896793.0000 168019.878  91.1%     -    0s
H    0     0                    1750009.0000 168019.878  90.4%     -    0s
     0     0 168489.997    0  323 1750009.00 168489.997  90.4%     -    0s
     0     0 168631.189    0  331 1750009.00 168631.189  90.4%     -    0s
     0     0 168631.219    0  331 1750009.00 168631.219  90.4%     -    0s
H    0     0                    1252771.0000 177616.947  85.8%     -    0s
     0     0 177616.947    0  324 1252771.00 177616.947  85.8%     -    0s
H    0     0                    1247596.0000 177616.947  85.8%     -    0s
H    0     0                    1226946.0000 177616.947  85.5%     -    0s
H    0     0                    1154064.0000 177616.947  84.6%     -    0s
     0     0 178219.811    0  323 1154064.00 178219.811  84.6%     -    0s
     0     0 178232.917    0  328 1154064.00 178232.917  84.6%     -    0s
     0     0 187900.136    0  326 1154064.00 187900.136  83.7%     -    0s
H    0     0                    1154039.0000 187900.136  83.7%     -    0s
H    0     0                    1136069.0000 187900.136  83.5%     -    0s
     0     0 188062.221    0  343 1136069.00 188062.221  83.4%     -    0s
     0     0 188201.287    0  337 1136069.00 188201.287  83.4%     -    0s
     0     0 188202.788    0  342 1136069.00 188202.788  83.4%     -    0s
     0     0 191921.755    0  354 1136069.00 191921.755  83.1%     -    1s
H    0     0                    1128000.0000 191921.755  83.0%     -    1s
H    0     0                    362928.00000 191921.755  47.1%     -    1s
     0     0 191968.656    0  355 362928.000 191968.656  47.1%     -    1s
     0     0 191969.466    0  360 362928.000 191969.466  47.1%     -    1s
     0     0 194004.721    0  359 362928.000 194004.721  46.5%     -    1s
H    0     0                    357503.00000 194004.721  45.7%     -    1s
     0     0 194476.590    0  346 357503.000 194476.590  45.6%     -    1s
     0     0 194533.746    0  346 357503.000 194533.746  45.6%     -    1s
     0     0 194565.552    0  343 357503.000 194565.552  45.6%     -    1s
     0     0 196012.672    0  353 357503.000 196012.672  45.2%     -    1s
     0     0 196105.040    0  355 357503.000 196105.040  45.1%     -    1s
     0     0 196111.221    0  346 357503.000 196111.221  45.1%     -    1s
     0     0 196416.781    0  358 357503.000 196416.781  45.1%     -    1s
     0     0 196416.781    0  343 357503.000 196416.781  45.1%     -    1s
H    0     0                    356674.00000 196642.334  44.9%     -    1s
     0     0 196642.334    0  209 356674.000 196642.334  44.9%     -    1s
H    0     0                    351579.00000 196642.334  44.1%     -    1s
     0     0 196642.334    0  308 351579.000 196642.334  44.1%     -    1s
H    0     0                    334958.00000 196642.334  41.3%     -    1s
H    0     0                    333918.00000 196642.334  41.1%     -    1s
     0     0 196642.334    0  322 333918.000 196642.334  41.1%     -    2s
     0     0 196642.334    0  325 333918.000 196642.334  41.1%     -    2s
     0     0 196642.334    0  339 333918.000 196642.334  41.1%     -    2s
     0     0 196735.002    0  333 333918.000 196735.002  41.1%     -    2s
     0     0 196795.518    0  326 333918.000 196795.518  41.1%     -    2s
     0     0 196796.213    0  333 333918.000 196796.213  41.1%     -    2s
     0     0 196933.298    0  340 333918.000 196933.298  41.0%     -    2s
H    0     0                    302683.00000 196933.298  34.9%     -    2s
     0     0 196935.259    0  347 302683.000 196935.259  34.9%     -    2s
     0     0 196999.700    0  347 302683.000 196999.700  34.9%     -    2s
     0     0 196999.700    0  330 302683.000 196999.700  34.9%     -    2s
H    0     0                    296837.00000 196999.700  33.6%     -    2s
H    0     0                    295652.00000 197028.210  33.4%     -    2s
     0     2 197028.210    0  327 295652.000 197028.210  33.4%     -    2s
H   31    38                    295612.00000 200091.488  32.3%   817    3s
H   31    38                    283577.00000 200091.488  29.4%   817    3s
H   34    38                    280422.00000 200403.798  28.5%   787    3s
H   37    38                    271975.00000 200403.798  26.3%   768    3s
H   68    69                    263637.00000 200403.798  24.0%   627    3s
H   71    69                    256929.00000 200403.798  22.0%   650    3s
H   73    69                    256770.00000 200403.798  22.0%   651    3s
H  116   107                    256553.00000 200403.798  21.9%   618    3s
H  137   132                    256552.00000 200403.798  21.9%   575    4s
H  242   196                    225541.00000 200403.798  11.1%   547    4s
H  258   184                    225372.00000 200754.635  10.9%   533    4s
H  262   184                    225351.00000 200754.635  10.9%   535    4s
H  275   184                    225336.00000 200754.635  10.9%   531    4s
   279   168 216075.504    5  311 225336.000 200754.635  10.9%   535    5s
H  282   168                    225250.00000 200754.635  10.9%   530    5s
H  315   168                    224496.00000 200754.635  10.6%   499    5s
H  341   173                    223597.00000 200754.635  10.2%   488    5s
*  390   176              16    223592.00000 200754.635  10.2%   451    5s
H  432   157                    223572.00000 204797.035  8.40%   430    5s
H  870   212                    221734.00000 220819.424  0.41%   290    6s
H  915   212                    221674.00000 220820.668  0.38%   277    6s
H 1041   260                    221654.00000 220820.668  0.38%   245    6s
H 1121   260                    221634.00000 221480.074  0.07%   230    6s
* 1133   260              35    221633.00000 221480.156  0.07%   228    6s

Cutting planes:
  Gomory: 5
  Cover: 39
  Clique: 27
  MIR: 62
  StrongCG: 19
  GUB cover: 100
  Zero half: 36
  RLT: 4

Explored 1803 nodes (299210 simplex iterations) in 6.28 seconds (12.11 work units)
Thread count was 8 (of 8 available processors)

Solution count 10: 221633 221634 221654 ... 225250

Optimal solution found (tolerance 1.00e-04)
Best objective 2.216330000000e+05, best bound 2.216330000000e+05, gap 0.0000%
